20
587 233 220
89 56 45
53 37 34
54 35 25
73 39 33
73 39 38
50 42 29
62 59 54
98 53 44
94 32 31
97 64 28
102 77 42
80 75 44
93 52 41
77 51 38
57 54 52
105 97 46
103 76 54
72 53 34
42 38 35
61 58 46
thpack7_39